150
[15,16,17,18,19,20,21,22,23,24,25,26,28,29,30,31,32,33,34,35,37,38,39,40,41,42,43,44,45,46,48,49,50,51,52,53,57,58,59,60,61,62,63,64,65,66,67,68,70,71,72,73,75,76,77,78,80,81,82,83,84,86,87,88,89,91,92,93,94,95,97,98,99,100,101,103,105]
[2,3,2,2,5,4,1,3,3,2,3,1,4,6,3,2,7,4,5,1,1,3,1,2,2,2,2,4,2,2,2,1,1,3,5,2,3,2,4,2,1,1,2,2,4,4,3,6,2,4,1,4,2,2,1,1,2,1,2,4,5,2,4,3,2,1,5,1,4,1,3,2,1,3,1,3,1]
